17	4	3
32	26	25	32	47	39	25	
0	0	0	0	0	8	6	8	4	4	1	3	2	3	4
10	10	7	8	10	4	7	5	9	5	1	3	8	12	17
3	1	5	2	10	10	10	5	3	2	9	3	5	6	7
7	3	3	4	10	6	1	6	4	5	8	1	14
2	6	9	4	9	5	2	10	4	10	4	2	11	17
125	3	4	7	5	6	8	9	4	1	3	2	17	17
150	10	9	3	8	5	4	9	9	3	4	2	9	16
175	7	2	3	10	10	2	4	5	5	5	2	10	17
25	8	6	10	3	4	1	5	9	4	10	1	17
75	8	7	5	10	6	9	2	5	2	1	1	17
100	10	9	10	4	8	8	9	7	2	9	1	17
200	1	7	5	6	10	6	2	8	5	4	2	13	15
4	4	4	5	9	2	5	6	5	9	1	2	17	17
6	9	4	2	7	9	2	2	4	10	5	1	17
1	6	2	10	8	3	6	4	5	1	6	1	17
3	7	9	4	7	6	8	4	4	5	5	1	17
0	0	0	0	0	2	4	1	4	2	6	0
